
  22   10
  10   10   10   10   10   10   10   10   10   10

   0   0   0   0   0   0   0   0   0   0   0   2 2 4 
   7  10   0   0   0   0   0   0   0   0   0   2 6 3 
   2   0   0   0   0   0   0   0  10   0   0   1 5 
  10   0   0   0   0   0   0  10   0   0   0   1 5 
   3  10   0   0   0   0   0   0   0   0   0   1 7 
   2   0  10   0   0   0   0   0   0   0   0   1 7 
   7   0   0   0   0  10   0   0   0   0   0   3 14 9 8 
   2   0   0   0   0  10   0   0   0   0   0   3 13 12 11 
   5   0   0   0  10   0   0   0   0   0   0   3 13 12 10 
   9   0   0   0   0   0  10   0   0   0   0   2 18 15 
   5   0   0   0   0   0   0   0  10   0   0   2 18 15 
   3   0   0  10   0   0   0   0   0   0   0   1 15 
   5   0   0   0   0   0   0   0   0  10   0   1 15 
   8   0   0   0   0  10   0   0   0   0   0   1 15 
   1   0   0   0   0   0   0  10   0   0   0   2 21 16 
   8   0   0   0   0   0   0   0  10   0   0   2 20 17 
   8   0   0   0   0   0   0   0   0   0  10   1 19 
   6  10   0   0   0   0   0   0   0   0   0   1 19 
   3  10   0   0   0   0   0   0   0   0   0   1 22
   6   0   0   0   0   0   0   0  10   0   0   1 22
   4   0  10   0   0   0   0   0   0   0   0   1 22
   0   0   0   0   0   0   0   0   0   0   0   0 
